N = 10;
D = 4;
N1= 4;
N2 = 3;
N3 = 2;
MaxDT = 5;
MaxDL = 0;
MinDT = 4;
A = 0;
C = 2;
categ = [1, 2, 1, 2, 1, 2, 1, 2, 1, 2];
afin = [| 0, 1, 0, 0, 1, 0, 1, 0, 0, 0
        | 0, 0, 0, 0, 1, 1, 0, 0, 0, 1
        | 0, 0, 0, 1, 0, 1, 1, 0, 1, 1
        | 0, 0, 0, 0, 0, 1, 0, 0, 1, 0
        | 0, 0, 0, 0, 0, 0, 1, 1, 0, 0
        | 0, 0, 0, 0, 0, 0, 1, 0, 1, 0
        | 0, 0, 0, 0, 0, 0, 0, 1, 0, 1
        | 0, 0, 0, 0, 0, 0, 0, 0, 1, 1
        | 0, 0, 0, 0, 0, 0, 0, 0, 0, 0
        | 0, 0, 0, 0, 0, 0, 0, 0, 0, 0|]        